c This is QMaxSAT 2017 based on 14.07
c This is Glucose 3.0
c This is MiniSat 2.2.0
c WARNING: for repeatability, setting FPU to use double precision
c card = mrwto, comp = 0, pmodel = 0, narr = 4, mct = 76, verb = 0
cr firstCPXsol 0 0 0
c top = 189219
c |  Number of variables:    12482                                            |
c |  Number of clauses:      933383                                           |
c |  Weight of hard clauses: 189219                                           |
c |  Number of soft clauses: 24600                                            |
c |  Number of unit soft clauses: 0                                           |
c |  Maximum Cardinality (by unit): 813656       (0           )               |
c last restart ## conflicts  :  0 200 
o 770 | cpuTime 0.121668 s
c Sum of weights = 203414
c A number of soft clauses remained = 6150
c MRWTO encoding for Pseudo-Boolean Constraints
c sizeMax=770
c No.0 Divisor=10	generated by pow1
c No.1 Divisor=10	generated by pow1
c No.2 Divisor=10	generated by pow1
c p0= 10	p1= 10	p2= 10	
c number of digits = 4
c linkingVar[0].size = 10, linkingVar[1].size = 10, linkingVar[2].size = 8, linkingVar[3].size = 1, 
c Pseudo-Boolean Constraints: 114301 variables and 895390 clauses
c Sum of weights = 203414
c A number of soft clauses remained = 6150
c MRWTO encoding for Pseudo-Boolean Constraints
c sizeMax=770
c No.0 Divisor=10	generated by pow1
c No.1 Divisor=10	generated by pow1
c No.2 Divisor=10	generated by pow1
c p0= 10	p1= 10	p2= 10	
c number of digits = 4
c linkingVar[0].size = 10, linkingVar[1].size = 10, linkingVar[2].size = 8, linkingVar[3].size = 1, 
c Pseudo-Boolean Constraints: 114301 variables and 895390 clauses
c Sum of weights = 203414
c A number of soft clauses remained = 6150
c MRWTO encoding for Pseudo-Boolean Constraints
c sizeMax=770
c No.0 Divisor=10	generated by pow1
c No.1 Divisor=10	generated by pow1
c No.2 Divisor=10	generated by pow1
c p0= 10	p1= 10	p2= 10	
c number of digits = 4
c linkingVar[0].size = 10, linkingVar[1].size = 10, linkingVar[2].size = 8, linkingVar[3].size = 1, 
c Pseudo-Boolean Constraints: 114301 variables and 895390 clauses
c Sum of weights = 203414
c A number of soft clauses remained = 6150
c MRWTO encoding for Pseudo-Boolean Constraints
c sizeMax=770
c No.0 Divisor=10	generated by pow1
c No.1 Divisor=10	generated by pow1
c No.2 Divisor=10	generated by pow1
c p0= 10	p1= 10	p2= 10	
c number of digits = 4
c linkingVar[0].size = 10, linkingVar[1].size = 10, linkingVar[2].size = 8, linkingVar[3].size = 1, 
c Pseudo-Boolean Constraints: 114301 variables and 895390 clauses
c last restart ## conflicts  :  700 5357 
o 685 | cpuTime 67.9127 s
c last restart ## conflicts  :  697 3971 
o 625 | cpuTime 73.0286 s
c last restart ## conflicts  :  597 7079 
o 514 | cpuTime 425.904 s
s UNKNOWN
c Search is stopped by a limit (maybe time-limit)
cr positiVarArr: [ | 54(1->51) | 157(1->75) | 229(1->68) | 283(1->43) | 349(2->30) | 442(3->44) | 542(4->65) | 578(5->22) | 709(6->74) | 722(7->8) | 814(8->21) | 925(9->53) | 951(10->1) | 1089(11->59) | 1107(12->1) | 1203(13->15) | 1283(14->16) | 1407(15->61) | 1428(16->3) | 1530(17->26) | 1638(18->55) | 1675(19->13) | 1798(20->57) | 1819(21->1) | 1966(22->67) | 2050(23->72) | 2088(24->31) | 2160(25->24) | 2255(26->40) | 2305(27->11) | 2375(28->2) | 2472(29->20) | 2548(30->17) | 2681(31->71) | 2698(32->9) | 2816(33->48) | 2874(34->27) | 2972(35->46) | 3034(36->29) | 3122(37->38) | 3221(38->58) | 3267(39->25) | 3333(40->12) | 3442(41->42) | 3502(42->23) | 3572(43->14) | 3669(44->32) | 3785(45->69) | 3829(46->34) | 3878(47->4) | 3989(48->36) | 4039(49->7) | 4160(50->49) | 4244(51->54) | 4274(52->5) | 4383(53->35) | 4460(54->33) | 4562(55->56) | 4635(56->50) | 4711(57->47) | 4744(58->1) | 4841(59->19) | 4938(60->37) | 5008(61->28) | 5100(62->41) | 5211(63->73) | 5280(64->63) | 5314(65->18) | 5439(66->64) | 5499(67->45) | 5539(68->6) | 5622(69->10) | 5751(70->60) | 5840(71->70) | 5888(72->39) | 5980(73->52) | 6069(74->62) | 6162(75->76) | 6231(76->66) | ]
cr the 1-th chain: [ 1->51->54->33->48->36->29->20->57->47->4->65->18->55->56->50->49->7->8->21->1 ] (#non-depot=19) {#cumul.=20}
cr the 2-th chain: [ 1->75->76->66->64->63->73->52->5->22->67->45->69->10->1 ] (#non-depot=13) {#cumul.=33}
cr the 3-th chain: [ 1->68->6->74->62->41->42->23->72->39->25->24->31->71->70->60->37->38->58->1 ] (#non-depot=18) {#cumul.=51}
cr the 4-th chain: [ 1->43->14->16->3->44->32->9->53->35->46->34->27->11->59->19->13->15->61->28->2->30->17->26->40->12->1 ] (#non-depot=25) {#cumul.=76}
c Latest Answer = 0 by 4 loops
c restarts              : 39322
c conflicts             : 7597490        (2113 /sec)
c decisions             : 100640871      (0.00 % random) (27991 /sec)
c propagations          : 35232059581    (9799145 /sec)
c conflict literals     : 960021088      (33.26 % deleted)
c Memory used           : 819.00 MB
c CPU time              : 3595.42 s
